40
1 0 10
2 0 5
2 1 12
3 0 2
3 1 1
3 2 11
4 0 10
4 1 10
4 2 8
4 3 8
5 0 2
5 1 2
5 2 9
5 3 4
5 4 3
6 0 5
6 1 8
6 2 2
6 3 7
6 4 12
6 5 4
7 0 1
7 1 8
7 2 3
7 3 4
7 4 11
7 5 4
7 6 12
8 0 7
8 1 12
8 2 1
8 3 1
8 4 10
8 5 4
8 6 1
8 7 10
9 0 9
9 1 9
9 2 7
9 3 6
9 4 9
9 5 3
9 6 2
9 7 8
9 8 5
10 0 9
10 1 9
10 2 6
10 3 9
10 4 10
10 5 4
10 6 6
10 7 10
10 8 5
10 9 10
11 0 12
11 1 12
11 2 5
11 3 5
11 4 9
11 5 1
11 6 10
11 7 4
11 8 10
11 9 4
11 10 10
12 0 12
12 1 8
12 2 9
12 3 11
12 4 6
12 5 5
12 6 9
12 7 10
12 8 3
12 9 10
12 10 10
12 11 9
13 0 12
13 1 2
13 2 12
13 3 8
13 4 4
13 5 2
13 6 9
13 7 8
13 8 12
13 9 7
13 10 8
13 11 2
13 12 6
14 0 8
14 1 11
14 2 5
14 3 9
14 4 2
14 5 6
14 6 4
14 7 8
14 8 1
14 9 8
14 10 9
14 11 12
14 12 7
14 13 12
15 0 8
15 1 11
15 2 5
15 3 5
15 4 8
15 5 9
15 6 3
15 7 12
15 8 5
15 9 3
15 10 7
15 11 4
15 12 7
15 13 7
15 14 11
16 0 2
16 1 10
16 2 6
16 3 12
16 4 5
16 5 7
16 6 3
16 7 12
16 8 8
16 9 5
16 10 2
16 11 10
16 12 4
16 13 4
16 14 10
16 15 1
17 0 4
17 1 8
17 2 4
17 3 6
17 4 7
17 5 9
17 6 7
17 7 12
17 8 8
17 9 5
17 10 5
17 11 12
17 12 12
17 13 2
17 14 4
17 15 8
17 16 12
18 0 10
18 1 8
18 2 11
18 3 2
18 4 9
18 5 3
18 6 4
18 7 3
18 8 2
18 9 3
18 10 9
18 11 11
18 12 3
18 13 2
18 14 9
18 15 5
18 16 3
18 17 8
19 0 2
19 1 11
19 2 1
19 3 10
19 4 2
19 5 1
19 6 1
19 7 6
19 8 12
19 9 2
19 10 5
19 11 11
19 12 7
19 13 8
19 14 9
19 15 9
19 16 9
19 17 1
19 18 5
20 0 6
20 1 12
20 2 7
20 3 9
20 4 5
20 5 4
20 6 1
20 7 6
20 8 5
20 9 6
20 10 2
20 11 5
20 12 3
20 13 4
20 14 9
20 15 6
20 16 3
20 17 6
20 18 6
20 19 3
21 0 12
21 1 11
21 2 5
21 3 1
21 4 2
21 5 11
21 6 11
21 7 4
21 8 6
21 9 8
21 10 10
21 11 4
21 12 12
21 13 8
21 14 5
21 15 8
21 16 7
21 17 3
21 18 8
21 19 9
21 20 1
22 0 9
22 1 1
22 2 7
22 3 1
22 4 10
22 5 5
22 6 5
22 7 4
22 8 5
22 9 1
22 10 8
22 11 1
22 12 12
22 13 2
22 14 2
22 15 3
22 16 12
22 17 7
22 18 9
22 19 2
22 20 8
22 21 6
23 0 4
23 1 1
23 2 6
23 3 8
23 4 3
23 5 6
23 6 11
23 7 6
23 8 7
23 9 10
23 10 9
23 11 9
23 12 3
23 13 5
23 14 4
23 15 10
23 16 8
23 17 9
23 18 12
23 19 12
23 20 3
23 21 9
23 22 2
24 0 9
24 1 1
24 2 10
24 3 2
24 4 9
24 5 3
24 6 8
24 7 4
24 8 10
24 9 2
24 10 1
24 11 4
24 12 7
24 13 3
24 14 12
24 15 2
24 16 8
24 17 2
24 18 2
24 19 12
24 20 2
24 21 5
24 22 9
24 23 11
25 0 7
25 1 10
25 2 7
25 3 10
25 4 12
25 5 8
25 6 8
25 7 12
25 8 2
25 9 12
25 10 8
25 11 12
25 12 12
25 13 6
25 14 3
25 15 1
25 16 8
25 17 7
25 18 6
25 19 6
25 20 2
25 21 7
25 22 6
25 23 10
25 24 11
26 0 6
26 1 7
26 2 11
26 3 4
26 4 11
26 5 10
26 6 7
26 7 9
26 8 5
26 9 2
26 10 11
26 11 11
26 12 8
26 13 9
26 14 8
26 15 12
26 16 9
26 17 3
26 18 8
26 19 2
26 20 12
26 21 8
26 22 8
26 23 4
26 24 12
26 25 5
27 0 8
27 1 5
27 2 9
27 3 4
27 4 10
27 5 2
27 6 9
27 7 1
27 8 9
27 9 5
27 10 8
27 11 6
27 12 6
27 13 1
27 14 6
27 15 12
27 16 7
27 17 9
27 18 6
27 19 10
27 20 9
27 21 5
27 22 6
27 23 7
27 24 6
27 25 4
27 26 5
28 0 11
28 1 3
28 2 11
28 3 8
28 4 3
28 5 9
28 6 1
28 7 4
28 8 3
28 9 10
28 10 10
28 11 12
28 12 11
28 13 6
28 14 2
28 15 8
28 16 5
28 17 4
28 18 4
28 19 2
28 20 5
28 21 4
28 22 7
28 23 3
28 24 5
28 25 1
28 26 2
28 27 11
29 0 3
29 1 3
29 2 9
29 3 11
29 4 2
29 5 6
29 6 12
29 7 4
29 8 9
29 9 11
29 10 11
29 11 10
29 12 12
29 13 6
29 14 12
29 15 1
29 16 2
29 17 11
29 18 8
29 19 6
29 20 5
29 21 12
29 22 10
29 23 8
29 24 12
29 25 12
29 26 4
29 27 4
29 28 11
30 0 12
30 1 3
30 2 10
30 3 8
30 4 6
30 5 8
30 6 11
30 7 8
30 8 2
30 9 10
30 10 4
30 11 6
30 12 6
30 13 12
30 14 11
30 15 2
30 16 12
30 17 6
30 18 9
30 19 2
30 20 2
30 21 2
30 22 7
30 23 10
30 24 9
30 25 10
30 26 12
30 27 10
30 28 3
30 29 8
31 0 9
31 1 4
31 2 8
31 3 10
31 4 5
31 5 10
31 6 2
31 7 2
31 8 1
31 9 9
31 10 2
31 11 9
31 12 3
31 13 5
31 14 9
31 15 1
31 16 3
31 17 2
31 18 6
31 19 5
31 20 2
31 21 12
31 22 2
31 23 1
31 24 11
31 25 10
31 26 8
31 27 11
31 28 4
31 29 12
31 30 11
32 0 5
32 1 11
32 2 3
32 3 8
32 4 5
32 5 10
32 6 7
32 7 10
32 8 5
32 9 2
32 10 5
32 11 7
32 12 7
32 13 4
32 14 3
32 15 9
32 16 4
32 17 2
32 18 4
32 19 12
32 20 5
32 21 2
32 22 6
32 23 11
32 24 1
32 25 3
32 26 3
32 27 1
32 28 3
32 29 5
32 30 1
32 31 7
33 0 6
33 1 5
33 2 8
33 3 4
33 4 8
33 5 3
33 6 2
33 7 3
33 8 2
33 9 9
33 10 10
33 11 4
33 12 2
33 13 8
33 14 9
33 15 8
33 16 5
33 17 8
33 18 6
33 19 10
33 20 3
33 21 1
33 22 7
33 23 12
33 24 5
33 25 6
33 26 4
33 27 2
33 28 4
33 29 9
33 30 6
33 31 7
33 32 9
34 0 12
34 1 11
34 2 12
34 3 10
34 4 9
34 5 3
34 6 5
34 7 12
34 8 7
34 9 6
34 10 2
34 11 7
34 12 9
34 13 3
34 14 1
34 15 12
34 16 6
34 17 2
34 18 10
34 19 11
34 20 6
34 21 2
34 22 11
34 23 6
34 24 1
34 25 10
34 26 10
34 27 1
34 28 4
34 29 9
34 30 11
34 31 5
34 32 7
34 33 9
35 0 9
35 1 6
35 2 4
35 3 9
35 4 8
35 5 8
35 6 11
35 7 11
35 8 9
35 9 9
35 10 1
35 11 10
35 12 5
35 13 2
35 14 12
35 15 2
35 16 8
35 17 8
35 18 6
35 19 3
35 20 6
35 21 4
35 22 7
35 23 8
35 24 9
35 25 4
35 26 9
35 27 12
35 28 5
35 29 2
35 30 12
35 31 11
35 32 5
35 33 9
35 34 8
36 0 11
36 1 2
36 2 11
36 3 11
36 4 9
36 5 4
36 6 8
36 7 1
36 8 2
36 9 7
36 10 10
36 11 9
36 12 1
36 13 9
36 14 6
36 15 12
36 16 12
36 17 6
36 18 10
36 19 11
36 20 2
36 21 3
36 22 6
36 23 12
36 24 7
36 25 1
36 26 9
36 27 12
36 28 4
36 29 3
36 30 8
36 31 11
36 32 12
36 33 2
36 34 6
36 35 3
37 0 6
37 1 8
37 2 11
37 3 11
37 4 6
37 5 11
37 6 3
37 7 10
37 8 3
37 9 12
37 10 7
37 11 3
37 12 12
37 13 7
37 14 3
37 15 11
37 16 10
37 17 2
37 18 6
37 19 5
37 20 2
37 21 5
37 22 3
37 23 1
37 24 12
37 25 3
37 26 6
37 27 11
37 28 6
37 29 10
37 30 8
37 31 4
37 32 7
37 33 2
37 34 12
37 35 8
37 36 2
38 0 2
38 1 2
38 2 7
38 3 8
38 4 9
38 5 7
38 6 6
38 7 12
38 8 4
38 9 5
38 10 5
38 11 11
38 12 9
38 13 5
38 14 6
38 15 2
38 16 4
38 17 10
38 18 7
38 19 7
38 20 9
38 21 6
38 22 1
38 23 7
38 24 1
38 25 8
38 26 9
38 27 12
38 28 6
38 29 11
38 30 12
38 31 3
38 32 1
38 33 4
38 34 3
38 35 1
38 36 9
38 37 2
39 0 9
39 1 1
39 2 11
39 3 5
39 4 2
39 5 12
39 6 8
39 7 2
39 8 9
39 9 6
39 10 11
39 11 7
39 12 3
39 13 10
39 14 4
39 15 11
39 16 10
39 17 8
39 18 5
39 19 12
39 20 7
39 21 8
39 22 9
39 23 3
39 24 3
39 25 8
39 26 12
39 27 2
39 28 6
39 29 6
39 30 1
39 31 6
39 32 10
39 33 1
39 34 3
39 35 1
39 36 9
39 37 2
39 38 11
